k-points
 0
Monkhorst Pack
 23 23 23
 0  0  0
