k-points
 0
Monkhorst Pack
 17 17 17
 0  0  0
