k-points
 0
Monkhorst Pack
 15 15 15
 0  0  0
