NiO-AF1
4.105
0.70710678118        0.0000000000         0.0000000000
0.0000000000         0.70710678118        0.0000000000
0.0000000000         0.0000000000         1
Ni  O
2   2
Direct
0.000000000         0.000000000         0.000000000
0.500000000         0.500000000         0.500000000
0.000000000         0.000000000         0.500000000
0.500000000         0.500000000         0.000000000
