NiO-AF2
4.075
1.0 0.5 0.5
0.5 1.0 0.5
0.5 0.5 1.0
Ni O
2  2
Cartesian
0.0 0.0 0.0
1.0 1.0 1.0
0.5 0.5 0.5
1.5 1.5 1.5
